c nombre: 29
c densidad: 0.3
p edges 45 291
e 1 2
e 1 6
e 1 9
e 1 11
e 1 18
e 1 19
e 1 30
e 2 5
e 2 11
e 2 13
e 2 16
e 2 17
e 2 21
e 2 24
e 2 26
e 2 32
e 2 34
e 2 35
e 2 39
e 2 43
e 3 7
e 3 10
e 3 12
e 3 13
e 3 15
e 3 16
e 3 17
e 3 18
e 3 22
e 3 23
e 3 28
e 3 30
e 3 32
e 3 33
e 3 41
e 3 42
e 4 5
e 4 9
e 4 17
e 4 20
e 4 21
e 4 23
e 4 26
e 4 27
e 4 32
e 4 36
e 5 11
e 5 12
e 5 13
e 5 25
e 5 30
e 5 31
e 5 34
e 5 35
e 5 41
e 5 45
e 6 7
e 6 8
e 6 10
e 6 18
e 6 24
e 6 29
e 6 30
e 6 31
e 6 35
e 6 39
e 6 43
e 7 10
e 7 20
e 7 28
e 7 33
e 7 34
e 7 36
e 7 38
e 7 40
e 7 41
e 8 13
e 8 15
e 8 16
e 8 17
e 8 20
e 8 22
e 8 30
e 8 35
e 8 36
e 8 39
e 9 16
e 9 21
e 9 25
e 9 28
e 9 29
e 9 36
e 9 37
e 9 38
e 10 11
e 10 22
e 10 23
e 10 26
e 10 27
e 10 28
e 10 29
e 10 32
e 10 35
e 10 36
e 10 38
e 10 42
e 11 12
e 11 13
e 11 15
e 11 17
e 11 24
e 11 32
e 11 35
e 11 38
e 12 24
e 12 28
e 12 30
e 12 33
e 12 35
e 12 36
e 12 39
e 12 45
e 13 14
e 13 21
e 13 26
e 13 27
e 13 29
e 13 30
e 13 31
e 13 37
e 14 15
e 14 19
e 14 20
e 14 25
e 14 34
e 14 35
e 14 40
e 15 16
e 15 22
e 15 33
e 15 34
e 15 36
e 15 38
e 15 39
e 15 40
e 15 43
e 15 44
e 16 20
e 16 24
e 16 25
e 16 29
e 16 30
e 16 33
e 16 34
e 16 37
e 16 40
e 16 41
e 17 18
e 17 24
e 17 25
e 17 28
e 17 30
e 17 32
e 17 34
e 17 39
e 17 41
e 17 45
e 18 28
e 18 29
e 18 32
e 18 36
e 18 37
e 18 38
e 18 42
e 18 44
e 19 20
e 19 21
e 19 27
e 19 28
e 19 29
e 19 30
e 19 31
e 19 33
e 19 34
e 19 45
e 20 21
e 20 26
e 20 32
e 20 33
e 20 35
e 20 36
e 20 40
e 20 44
e 21 22
e 21 24
e 21 26
e 21 31
e 22 25
e 22 27
e 22 28
e 22 31
e 22 33
e 22 34
e 22 38
e 22 39
e 22 44
e 22 45
e 23 30
e 23 31
e 23 32
e 23 34
e 23 36
e 23 41
e 23 44
e 24 28
e 24 29
e 24 30
e 24 31
e 24 35
e 24 39
e 24 42
e 24 45
e 25 27
e 25 29
e 25 35
e 25 36
e 25 37
e 25 45
e 26 34
e 26 35
e 26 38
e 26 40
e 26 41
e 26 44
e 26 45
e 27 29
e 27 30
e 27 34
e 27 36
e 27 39
e 27 41
e 27 43
e 27 44
e 27 45
e 28 29
e 28 30
e 28 38
e 28 41
e 28 43
e 28 45
e 29 30
e 29 31
e 29 33
e 29 34
e 29 38
e 29 40
e 29 45
e 30 32
e 30 40
e 30 41
e 32 36
e 32 37
e 32 44
e 33 34
e 33 37
e 33 39
e 33 41
e 33 42
e 33 43
e 33 44
e 34 35
e 34 41
e 34 42
e 35 37
e 35 40
e 35 43
e 37 41
e 37 42
e 37 43
e 37 44
e 37 45
e 38 40
e 38 45
e 39 43
e 40 41
e 40 45
e 41 42
e 41 44
e 42 43
e 42 45
e 44 45
